WARNING: for repeatability, setting FPU to use double precision
============================[ Problem Statistics ]=============================
|                                                                             |
|  Number of variables:            50                                         |
|  Number of clauses:             218                                         |
|  Parse time:                   0.00 s                                       |
|                                                                             |
============================[ Search Statistics ]==============================
| Conflicts |          ORIGINAL         |          LEARNT          | Progress |
|           |    Vars  Clauses Literals |    Limit  Clauses Lit/Cl |          |
===============================================================================
===============================================================================
restarts              : 1
conflicts             : 36             (25087 /sec)
decisions             : 54             (0.00 % random) (37631 /sec)
propagations          : 698            (486411 /sec)
conflict literals     : 141            (22.10 % deleted)
Memory used           : 20.00 MB
CPU time              : 0.001435 s

SATISFIABLE
